This is Ipopt version 3.12.13, running with linear solver ma57.

Number of nonzeros in equality constraint Jacobian...:        0
Number of nonzeros in inequality constraint Jacobian.:     9144
Number of nonzeros in Lagrangian Hessian.............:       21

Total number of variables............................:        6
                     variables with only lower bounds:        0
                variables with lower and upper bounds:        6
                     variables with only upper bounds:        0
Total number of equality constraints.................:        0
Total number of inequality constraints...............:     1524
        inequality constraints with only lower bounds:        0
   inequality constraints with lower and upper bounds:        0
        inequality constraints with only upper bounds:     1524

iter    objective    inf_pr   inf_du lg(mu)  ||d||  lg(rg) alpha_du alpha_pr  ls
   0  9.0015470e-02 3.48e-01 4.81e+00   0.0 0.00e+00    -  0.00e+00 0.00e+00   0
   1  9.9300050e-02 3.44e-01 5.07e+00  -5.2 1.90e+00    -  8.38e-02 3.56e-02h  1
   2  1.0552431e-01 3.42e-01 2.53e+01  -1.3 4.84e+00    -  2.86e-02 3.58e-03h  1
   3  1.0744118e-01 3.42e-01 1.65e+02  -5.2 7.45e+00    -  5.13e-03 7.42e-04h  1
   4r 1.0744118e-01 3.42e-01 9.99e+02  -0.5 0.00e+00    -  0.00e+00 2.52e-07R  6
   5r 2.5310460e-01 3.19e-01 9.98e+02   0.9 3.02e+02    -  2.14e-03 1.43e-03f  1
   6r 4.2021472e-01 2.82e-01 9.94e+02   1.3 1.03e+02    -  6.31e-03 3.11e-03f  1
   7r 5.0635738e-01 2.73e-01 9.89e+02   1.7 6.45e+01    -  1.14e-02 4.45e-03f  1
   8r 5.4044127e-01 2.65e-01 9.77e+02   0.3 2.27e+01    -  7.50e-02 1.08e-02f  1
   9r 5.5819285e-01 2.63e-01 2.94e+03   0.3 2.36e+00    -  9.94e-01 3.57e-02f  1
iter    objective    inf_pr   inf_du lg(mu)  ||d||  lg(rg) alpha_du alpha_pr  ls
  10  5.6117976e-01 2.62e-01 4.51e+02  -0.5 1.94e+00    -  4.66e-02 4.24e-03h  1
  11  5.5441010e-01 2.63e-01 7.67e+04   1.0 2.06e+01    -  9.94e-01 1.70e-03h  1
  12  5.5454195e-01 2.63e-01 1.06e+06  -5.0 2.46e+01    -  1.14e-03 3.67e-05h  1
  13  5.5770542e-01 2.62e-01 1.89e+05   3.0 5.79e+01    -  2.94e-04 6.36e-04h  1
  14  5.3291726e-01 2.62e-01 4.15e+05   3.1 1.13e+02    -  3.09e-04 6.19e-04h  1
  15r 5.3291726e-01 2.62e-01 1.00e+03   3.1 0.00e+00    -  0.00e+00 4.97e-07R  5
  16r 5.6342188e-01 2.62e-01 7.60e+02  -3.1 1.30e+00    -  4.87e-01 7.89e-02f  1
  17r 4.0909887e-01 2.62e-01 6.22e+02   0.8 5.00e+00    -  4.95e-01 2.07e-01f  1
  18r 4.7846640e-01 2.63e-01 9.64e+02   0.7 9.25e-01    -  1.00e+00 8.86e-01f  1
  19r 5.5663043e-01 2.63e-01 1.13e+03   0.9 5.89e-01    -  6.02e-01 3.65e-01f  1
iter    objective    inf_pr   inf_du lg(mu)  ||d||  lg(rg) alpha_du alpha_pr  ls
  20r 5.5998271e-01 2.63e-01 1.61e+02   0.7 1.16e-01    -  1.00e+00 8.82e-01f  1
  21r 5.6374589e-01 2.63e-01 1.87e+01   0.4 1.66e-02    -  1.00e+00 9.97e-01f  1
  22r 5.6560764e-01 2.63e-01 6.58e+01  -0.8 5.87e-03    -  1.00e+00 8.11e-01f  1
  23r 5.6617709e-01 2.63e-01 5.66e+01  -1.2 1.53e-03    -  1.00e+00 8.75e-01f  1
  24r 5.6630198e-01 2.63e-01 1.82e+01  -2.2 3.29e-04    -  1.00e+00 8.38e-01f  1
  25r 5.6632578e-01 2.63e-01 6.70e+01  -2.7 6.32e-05    -  1.00e+00 8.50e-01f  1
  26r 5.6633211e-01 2.63e-01 2.88e-03  -3.7 1.38e-05    -  1.00e+00 1.00e+00f  1
  27r 5.6633233e-01 2.63e-01 1.04e-02  -9.0 6.79e-07    -  9.99e-01 9.96e-01f  1

Number of Iterations....: 27

                                   (scaled)                 (unscaled)
Objective...............:   5.6633233146382844e-01    5.6633233146382844e-01
Dual infeasibility......:   4.1569917149334040e-01    4.1569917149334040e-01
Constraint violation....:   2.6261979140247754e-01    2.6261979140247754e-01
Complementarity.........:   4.8928665337501502e-09    4.8928665337501502e-09
Overall NLP error.......:   4.1569917149334040e-01    4.1569917149334040e-01


Number of objective function evaluations             = 40
Number of objective gradient evaluations             = 13
Number of equality constraint evaluations            = 0
Number of inequality constraint evaluations          = 40
Number of equality constraint Jacobian evaluations   = 0
Number of inequality constraint Jacobian evaluations = 31
Number of Lagrangian Hessian evaluations             = 28
Total CPU secs in IPOPT (w/o function evaluations)   =      0.049
Total CPU secs in NLP function evaluations           =      0.088

EXIT: Converged to a point of local infeasibility. Problem may be infeasible.
